<number of tasks>
50

<cycle time>
1000

<order strength>
0.896


<task times>
1 101
2 261
3 103
4 220
5 75
6 41
7 156
8 113
9 328
10 123
11 104
12 94
13 31
14 137
15 78
16 129
17 48
18 50
19 70
20 273
21 52
22 47
23 27
24 60
25 156
26 172
27 39
28 77
29 115
30 153
31 104
32 109
33 194
34 192
35 242
36 49
37 126
38 147
39 131
40 45
41 43
42 204
43 130
44 235
45 30
46 53
47 44
48 131
49 136
50 65

<precedence relations>
1,4
1,5
1,6
2,4
2,5
2,6
3,4
3,5
3,6
4,7
4,8
5,7
5,8
6,7
6,8
7,9
7,10
8,9
8,10
9,11
9,12
9,13
10,11
10,12
10,13
11,14
11,15
12,14
12,15
13,14
13,15
14,16
14,17
15,16
15,17
16,18
16,19
17,18
17,19
18,20
18,21
18,22
18,23
19,20
19,21
19,22
19,23
20,24
20,25
20,26
21,24
21,25
21,26
22,24
22,25
22,26
23,25
23,26
24,27
24,28
24,32
25,27
25,28
25,29
25,30
25,31
26,27
26,28
26,29
26,30
26,31
27,40
27,43
28,33
28,36
29,32
30,32
30,33
31,32
32,34
32,35
32,36
33,34
33,35
34,41
34,43
35,37
35,38
37,39
37,40
37,41
37,42
38,41
38,45
40,44
40,45
41,50
42,43
42,44
42,45
43,46
43,48
45,46
45,47
45,49
47,50
49,50

<end>
